NAME : mEgtspf.pid5895.gtsp.241592104.tour
COMMENT : Length = 241592104
COMMENT : Found by LKH [Keld Helsgaun] Sun Mar  9 13:34:56 2025
TYPE : TOUR
DIMENSION : 135
TOUR_SECTION
1
6
56
57
58
59
21
22
23
20
71
68
69
70
10
9
80
81
82
83
11
47
44
45
46
99
96
97
98
2
13
101
102
103
100
111
108
109
110
24
25
26
27
77
78
79
76
132
133
134
135
67
64
65
66
84
85
86
87
116
117
118
119
12
5
131
128
129
130
49
50
51
48
3
8
43
40
41
42
14
115
112
113
114
15
54
55
52
53
4
104
105
106
107
92
93
94
95
89
90
91
88
7
61
62
63
60
126
127
124
125
17
18
19
16
123
120
121
122
29
30
31
28
37
38
39
36
72
73
74
75
33
34
35
32
-1
EOF
